500
    1   500   500
    2   418   418
    3   776   776
    4   651   651
    5   526   526
    6   668   668
    7    79    79
    8   744   744
    9   864   864
   10   646   646
   11   518   518
   12   165   165
   13   801   801
   14   966   966
   15   680   680
   16   952   952
   17   193   193
   18   347   347
   19   766   766
   20   303   303
   21   272   272
   22   771   771
   23   847   847
   24   799   799
   25   160   160
   26   759   759
   27   632   632
   28   870   870
   29   633   633
   30   931   931
   31   969   969
   32   944   944
   33   393   393
   34   682   682
   35   212   212
   36   174   174
   37   701   701
   38   223   223
   39   474   474
   40   558   558
   41   857   857
   42   350   350
   43   420   420
   44    11    11
   45   496   496
   46   592   592
   47   475   475
   48   788   788
   49     1     1
   50   501   501
   51   492   492
   52    43    43
   53   958   958
   54   812   812
   55   788   788
   56   508   508
   57   938   938
   58   598   598
   59   875   875
   60   437   437
   61   150   150
   62    33    33
   63   856   856
   64   588   588
   65    16    16
   66   352   352
   67    25    25
   68    19    19
   69   304   304
   70   888   888
   71   541   541
   72   121   121
   73   472   472
   74   221   221
   75   281   281
   76   835   835
   77   344   344
   78   211   211
   79   739   739
   80   312   312
   81   427   427
   82    64    64
   83   838   838
   84   394   394
   85   306   306
   86   486   486
   87   890   890
   88    47    47
   89   403   403
   90   287   287
   91   959   959
   92   223   223
   93   102   102
   94   625   625
   95   790   790
   96   569   569
   97   419   419
   98   825   825
   99    12    12
  100   414   414
  101   403   403
  102   147   147
  103   924   924
  104   407   407
  105   881   881
  106   295   295
  107   744   744
  108   721   721
  109   613   613
  110   600   600
  111   860   860
  112   318   318
  113   533   533
  114   615   615
  115   519   519
  116   192   192
  117   688   688
  118   556   556
  119   686   686
  120   319   319
  121   129   129
  122   196   196
  123   983   983
  124   290   290
  125   356   356
  126    54    54
  127   871   871
  128   514   514
  129   792   792
  130   159   159
  131   656   656
  132   201   201
  133   889   889
  134   981   981
  135   915   915
  136   642   642
  137   904   904
  138   361   361
  139   502   502
  140   666   666
  141    18    18
  142   405   405
  143   514   514
  144    51    51
  145    50    50
  146   189   189
  147   203   203
  148   578   578
  149    36    36
  150   563   563
  151   285   285
  152   182   182
  153   887   887
  154   586   586
  155    31    31
  156   241   241
  157   197   197
  158   180   180
  159   463   463
  160   372   372
  161   466   466
  162   727   727
  163   314   314
  164   954   954
  165   839   839
  166   610   610
  167   806   806
  168   142   142
  169   922   922
  170   221   221
  171   806   806
  172    65    65
  173    12    12
  174   262   262
  175   760   760
  176   443   443
  177   302   302
  178   440   440
  179   151   151
  180   579   579
  181   337   337
  182   974   974
  183    57    57
  184   858   858
  185   817   817
  186   654   654
  187   940   940
  188    81    81
  189   580   580
  190   320   320
  191   209   209
  192    11    11
  193   789   789
  194    37    37
  195   877   877
  196   828   828
  197   800   800
  198   877   877
  199   424   424
  200   817   817
  201   281   281
  202   689   689
  203    44    44
  204   450   450
  205   294   294
  206   183   183
  207   396   396
  208   762   762
  209   109   109
  210    19    19
  211    38    38
  212   351   351
  213   163   163
  214   578   578
  215    55    55
  216   485   485
  217   443   443
  218   210   210
  219   753   753
  220   341   341
  221   935   935
  222   662   662
  223   667   667
  224   426   426
  225   349   349
  226   990   990
  227   381   381
  228   684   684
  229   897   897
  230   290   290
  231    39    39
  232   469   469
  233   915   915
  234   687   687
  235   445   445
  236   361   361
  237   949   949
  238    26    26
  239   697   697
  240   915   915
  241   388   388
  242   234   234
  243   149   149
  244   219   219
  245   592   592
  246   394   394
  247   507   507
  248   555   555
  249   961   961
  250   164   164
  251   491   491
  252   977   977
  253   360   360
  254   641   641
  255   424   424
  256   830   830
  257   719   719
  258   924   924
  259    15    15
  260   261   261
  261   934   934
  262   375   375
  263   949   949
  264    15    15
  265   611   611
  266   308   308
  267   156   156
  268   315   315
  269   565   565
  270   198   198
  271   418   418
  272   964   964
  273   997   997
  274    49    49
  275   807   807
  276   106   106
  277   634   634
  278   803   803
  279   104   104
  280   570   570
  281   679   679
  282   254   254
  283   981   981
  284   969   969
  285    75    75
  286   230   230
  287   147   147
  288   188   188
  289   485   485
  290   108   108
  291   590   590
  292   995   995
  293   634   634
  294   453   453
  295   719   719
  296   507   507
  297   861   861
  298   677   677
  299   430   430
  300   707   707
  301   345   345
  302   317   317
  303   949   949
  304   839   839
  305   686   686
  306   908   908
  307   712   712
  308   512   512
  309    62    62
  310   401   401
  311   636   636
  312    20    20
  313    74    74
  314   494   494
  315   203   203
  316   777   777
  317   606   606
  318   840   840
  319   681   681
  320   965   965
  321   677   677
  322   147   147
  323   791   791
  324   322   322
  325   778   778
  326   642   642
  327   346   346
  328   845   845
  329   389   389
  330    61    61
  331   878   878
  332   493   493
  333   327   327
  334   819   819
  335   708   708
  336   184   184
  337   250   250
  338   654   654
  339   829   829
  340   753   753
  341    15    15
  342   367   367
  343   746   746
  344   238   238
  345   109   109
  346    86    86
  347   442   442
  348   902   902
  349   963   963
  350    27    27
  351   255   255
  352   152   152
  353   722   722
  354   819   819
  355   293   293
  356   974   974
  357   602   602
  358   242   242
  359    40    40
  360    81    81
  361   967   967
  362   127   127
  363   409   409
  364   550   550
  365   728   728
  366   861   861
  367   724   724
  368   581   581
  369   789   789
  370   925   925
  371   841   841
  372   186   186
  373    42    42
  374   753   753
  375   197   197
  376   108   108
  377   780   780
  378   220   220
  379   709   709
  380   139   139
  381   598   598
  382   613   613
  383   895   895
  384   536   536
  385   152   152
  386   986   986
  387    28    28
  388   300   300
  389   821   821
  390    40    40
  391   358   358
  392    26    26
  393   936   936
  394   881   881
  395   234   234
  396   664   664
  397   859   859
  398   279   279
  399   545   545
  400   912   912
  401   379   379
  402   908   908
  403   433   433
  404   134   134
  405   451   451
  406   492   492
  407   499   499
  408   194   194
  409   875   875
  410   746   746
  411    97    97
  412    29    29
  413   716   716
  414   831   831
  415   926   926
  416   320   320
  417   971   971
  418   802   802
  419   409   409
  420   319   319
  421    88    88
  422    89    89
  423   728   728
  424   573   573
  425   843   843
  426   797   797
  427   397   397
  428   257   257
  429   186   186
  430   772   772
  431   823   823
  432   303   303
  433   952   952
  434   487   487
  435   232   232
  436   953   953
  437   357   357
  438   164   164
  439   534   534
  440   683   683
  441   358   358
  442    78    78
  443   673   673
  444   575   575
  445    97    97
  446   864   864
  447   912   912
  448   861   861
  449   168   168
  450   137   137
  451   672   672
  452   364   364
  453   431   431
  454   368   368
  455   537   537
  456   590   590
  457    43    43
  458   801   801
  459   759   759
  460   693   693
  461   961   961
  462   872   872
  463   242   242
  464   459   459
  465   545   545
  466   690   690
  467   362   362
  468   216   216
  469   421   421
  470   532   532
  471   452   452
  472   509   509
  473   601   601
  474   291   291
  475   257   257
  476   853   853
  477   329   329
  478   914   914
  479   737   737
  480   387   387
  481   217   217
  482   217   217
  483   499   499
  484   285   285
  485   133   133
  486   346   346
  487   967   967
  488   944   944
  489   630   630
  490    16    16
  491   563   563
  492   982   982
  493   414   414
  494   864   864
  495   158   158
  496   787   787
  497   344   344
  498   521   521
  499   348   348
  500   366   366
83723
